p wcnf 158 237 238 
1 -108 53 0 
1 -35 5 0 
1 -85 -37 0 
1 45 -17 0 
1 108 89 0 
1 29 6 0 
1 157 40 0 
1 142 -65 0 
1 26 -144 0 
1 32 -137 0 
1 -14 156 0 
1 -19 111 0 
1 -3 -20 0 
1 -46 -132 0 
1 -90 93 0 
1 -146 -86 0 
1 -80 11 0 
1 35 74 0 
1 75 107 0 
1 142 149 0 
1 17 -23 0 
1 24 -19 0 
1 35 -84 0 
1 116 56 0 
1 -56 -73 0 
1 -126 -116 0 
1 -147 37 0 
1 101 102 0 
1 18 113 0 
1 21 91 0 
1 -125 153 0 
1 140 47 0 
1 -31 74 0 
1 -93 -96 0 
1 -23 50 0 
1 -50 -56 0 
1 35 -141 0 
1 111 -45 0 
1 110 43 0 
1 -77 50 0 
1 6 -83 0 
1 -69 -28 0 
1 148 -124 0 
1 -30 -102 0 
1 -126 47 0 
1 -33 13 0 
1 85 116 0 
1 -106 -91 0 
1 -40 -52 0 
1 -37 10 0 
1 78 -13 0 
1 98 -42 0 
1 -31 -148 0 
1 -70 -76 0 
1 65 17 0 
1 -98 -18 0 
1 32 -144 0 
1 -3 35 0 
1 -48 -17 0 
1 100 -121 0 
1 150 46 0 
1 -1 68 0 
1 83 -146 0 
1 -148 5 0 
1 -57 13 0 
1 -138 94 0 
1 130 73 0 
1 -72 84 0 
1 -147 -69 0 
1 23 11 0 
1 -135 82 0 
1 145 -144 0 
1 24 13 0 
1 -83 14 0 
1 98 132 0 
1 3 41 0 
1 13 -130 0 
1 -121 13 0 
1 40 -30 0 
1 -91 28 0 
1 70 41 0 
1 72 107 0 
1 113 -46 0 
1 -10 -89 0 
1 -43 21 0 
1 59 67 0 
1 -91 67 0 
1 16 -61 0 
1 -10 66 0 
1 131 108 0 
1 52 24 0 
1 -84 -75 0 
1 -87 -112 0 
1 -102 -15 0 
1 74 -155 0 
1 -24 7 0 
1 13 -100 0 
1 -146 -75 0 
1 -90 84 0 
1 94 77 0 
1 35 -104 0 
1 143 15 0 
1 -47 -117 0 
1 -37 84 0 
1 -125 -16 0 
1 81 63 0 
1 84 -156 0 
1 -96 47 0 
1 44 66 0 
1 -152 -75 0 
1 70 -66 0 
1 -39 110 0 
1 -57 -21 0 
1 65 -71 0 
1 124 26 0 
1 134 80 0 
1 -43 -140 0 
1 -156 -28 0 
1 26 -27 0 
1 86 140 0 
1 -110 128 0 
1 -122 21 0 
1 -135 -97 0 
1 152 -90 0 
1 40 86 0 
1 144 122 0 
1 -4 -21 0 
1 129 126 0 
1 103 50 0 
1 -73 -133 0 
1 2 -16 0 
1 -86 -36 0 
1 36 61 0 
1 120 30 0 
1 -146 -19 0 
1 -1 -140 0 
1 9 100 0 
1 -77 -17 0 
1 -108 142 0 
1 -1 20 0 
1 -25 66 0 
1 66 112 0 
1 107 31 0 
1 -3 104 0 
1 -9 -52 0 
1 -51 -78 0 
1 -130 41 0 
1 -60 12 0 
1 -17 -105 0 
1 -109 111 0 
1 -53 -118 0 
1 114 -28 0 
1 -34 -100 0 
1 4 109 0 
1 7 -28 0 
1 -45 -146 0 
1 144 -33 0 
1 100 53 0 
1 25 1 0 
1 23 -158 0 
1 130 -31 0 
1 7 119 0 
1 -13 -83 0 
1 113 -112 0 
1 -39 5 0 
1 98 -152 0 
1 -128 55 0 
1 90 -26 0 
1 -42 108 0 
1 -123 36 0 
1 -1 144 0 
1 -67 138 0 
1 128 64 0 
1 -105 -129 0 
1 -3 77 0 
1 -134 121 0 
1 -40 25 0 
1 7 44 0 
1 -14 -56 0 
1 -141 27 0 
1 -46 14 0 
1 96 -125 0 
1 -63 -154 0 
1 109 -153 0 
1 80 -67 0 
1 -119 -157 0 
1 135 9 0 
1 -81 -136 0 
1 -103 78 0 
1 -100 -16 0 
1 -50 120 0 
1 88 12 0 
1 -135 -128 0 
1 -149 -128 0 
1 20 25 0 
1 -133 39 0 
1 -95 147 0 
1 -124 -19 0 
1 116 -136 0 
1 -42 -51 0 
1 78 2 0 
1 8 84 0 
1 138 -5 0 
1 100 51 0 
1 71 -8 0 
1 -66 25 0 
1 -120 55 0 
1 -100 131 0 
1 54 -124 0 
1 69 -125 0 
1 -147 141 0 
1 -15 74 0 
1 138 158 0 
1 57 156 0 
1 -5 36 0 
1 -28 -111 0 
1 126 -56 0 
1 -99 158 0 
1 137 121 0 
1 -39 -146 0 
1 57 10 0 
1 -140 99 0 
1 -155 16 0 
1 68 -147 0 
1 153 -134 0 
1 44 154 0 
1 -144 -98 0 
1 153 -21 0 
1 -133 -145 0 
1 -108 -141 0 
1 -51 -18 0 
1 -69 97 0 
1 -70 -48 0 
1 -110 -135 0 
1 -90 -56 0 
1 -94 65 0 
1 70 17 0 
